NAME : portcgen-29-11
COMMENT : portcgen N=29, seed=11
TYPE : TSP
DIMENSION : 29
EDGE_WEIGHT_TYPE : EUC_2D
NODE_COORD_SECTION
1 -326644 -1664
2 77765 -232101
3 -290899 61145
4 -158617 12449
5 151666 -137994
6 81885 -505706
7 155631 -98063
8 186975 304134
9 67865 -113023
10 -113972 -186811
11 29378 25521
12 72515 251868
13 -346360 -190084
14 327848 211934
15 33388 -16981
16 -163464 174147
17 257237 -147225
18 227181 36649
19 -128347 -145080
20 30109 328266
21 8773 -44515
22 -42722 103722
23 175778 24702
24 -69044 91507
25 -31594 -9417
26 27705 17203
27 248470 -348869
28 -54925 400256
29 46 54542
